* ENCODING=ISO-8859-1
NAME          interdiction55-10
ROWS
 N  cost    
 L  KL      
 L  KF      
 L  I0      
 L  I1      
 L  I2      
 L  I3      
 L  I4      
 L  I5      
 L  I6      
 L  I7      
 L  I8      
 L  I9      
 L  I10     
 L  I11     
 L  I12     
 L  I13     
 L  I14     
 L  I15     
 L  I16     
 L  I17     
 L  I18     
 L  I19     
 L  I20     
 L  I21     
 L  I22     
 L  I23     
 L  I24     
 L  I25     
 L  I26     
 L  I27     
 L  I28     
 L  I29     
 L  I30     
 L  I31     
 L  I32     
 L  I33     
 L  I34     
 L  I35     
 L  I36     
 L  I37     
 L  I38     
 L  I39     
 L  I40     
 L  I41     
 L  I42     
 L  I43     
 L  I44     
 L  I45     
 L  I46     
 L  I47     
 L  I48     
 L  I49     
 L  I50     
 L  I51     
 L  I52     
 L  I53     
 L  I54     
COLUMNS
    MARK0000  'MARKER'                 'INTORG'
    x0        KL                             45
    x0        I0                              1
    x1        KL                             45
    x1        I1                              1
    x2        KL                             31
    x2        I2                              1
    x3        KL                             40
    x3        I3                              1
    x4        KL                             79
    x4        I4                              1
    x5        KL                             69
    x5        I5                              1
    x6        KL                             50
    x6        I6                              1
    x7        KL                             65
    x7        I7                              1
    x8        KL                             38
    x8        I8                              1
    x9        KL                             21
    x9        I9                              1
    x10       KL                              1
    x10       I10                             1
    x11       KL                             28
    x11       I11                             1
    x12       KL                             60
    x12       I12                             1
    x13       KL                             89
    x13       I13                             1
    x14       KL                             83
    x14       I14                             1
    x15       KL                             52
    x15       I15                             1
    x16       KL                             99
    x16       I16                             1
    x17       KL                             47
    x17       I17                             1
    x18       KL                             84
    x18       I18                             1
    x19       KL                             41
    x19       I19                             1
    x20       KL                             75
    x20       I20                             1
    x21       KL                             99
    x21       I21                             1
    x22       KL                             31
    x22       I22                             1
    x23       KL                             18
    x23       I23                             1
    x24       KL                             63
    x24       I24                             1
    x25       KL                             54
    x25       I25                             1
    x26       KL                             36
    x26       I26                             1
    x27       KL                              1
    x27       I27                             1
    x28       KL                             39
    x28       I28                             1
    x29       KL                             43
    x29       I29                             1
    x30       KL                             41
    x30       I30                             1
    x31       KL                             87
    x31       I31                             1
    x32       KL                             59
    x32       I32                             1
    x33       KL                             74
    x33       I33                             1
    x34       KL                             90
    x34       I34                             1
    x35       KL                             75
    x35       I35                             1
    x36       KL                             50
    x36       I36                             1
    x37       KL                             75
    x37       I37                             1
    x38       KL                             65
    x38       I38                             1
    x39       KL                             65
    x39       I39                             1
    x40       KL                             63
    x40       I40                             1
    x41       KL                             41
    x41       I41                             1
    x42       KL                             63
    x42       I42                             1
    x43       KL                             64
    x43       I43                             1
    x44       KL                             94
    x44       I44                             1
    x45       KL                             79
    x45       I45                             1
    x46       KL                             85
    x46       I46                             1
    x47       KL                             77
    x47       I47                             1
    x48       KL                             82
    x48       I48                             1
    x49       KL                             61
    x49       I49                             1
    x50       KL                             35
    x50       I50                             1
    x51       KL                             27
    x51       I51                             1
    x52       KL                             71
    x52       I52                             1
    x53       KL                             88
    x53       I53                             1
    x54       KL                             55
    x54       I54                             1
    y0        cost                           19
    y0        KF                              1
    y0        I0                              1
    y1        cost                           39
    y1        KF                             52
    y1        I1                              1
    y2        cost                            5
    y2        KF                             63
    y2        I2                              1
    y3        cost                           70
    y3        KF                             86
    y3        I3                              1
    y4        cost                           19
    y4        KF                             57
    y4        I4                              1
    y5        cost                           14
    y5        KF                              2
    y5        I5                              1
    y6        cost                           90
    y6        KF                             82
    y6        I6                              1
    y7        cost                           33
    y7        KF                             38
    y7        I7                              1
    y8        cost                           80
    y8        KF                             31
    y8        I8                              1
    y9        cost                           98
    y9        KF                             63
    y9        I9                              1
    y10       cost                           11
    y10       KF                              5
    y10       I10                             1
    y11       cost                           10
    y11       KF                             25
    y11       I11                             1
    y12       cost                           55
    y12       KF                             28
    y12       I12                             1
    y13       cost                           88
    y13       KF                             96
    y13       I13                             1
    y14       cost                           15
    y14       KF                             39
    y14       I14                             1
    y15       cost                           49
    y15       KF                             56
    y15       I15                             1
    y16       cost                           86
    y16       KF                             41
    y16       I16                             1
    y17       cost                           63
    y17       KF                             15
    y17       I17                             1
    y18       cost                           63
    y18       KF                             73
    y18       I18                             1
    y19       cost                           19
    y19       KF                             99
    y19       I19                             1
    y20       cost                           94
    y20       KF                             23
    y20       I20                             1
    y21       cost                           82
    y21       KF                             75
    y21       I21                             1
    y22       cost                           58
    y22       KF                             68
    y22       I22                             1
    y23       cost                           45
    y23       KF                             59
    y23       I23                             1
    y24       cost                           95
    y24       KF                              8
    y24       I24                             1
    y25       cost                           61
    y25       KF                              4
    y25       I25                             1
    y26       cost                           97
    y26       KF                             95
    y26       I26                             1
    y27       cost                           54
    y27       KF                             25
    y27       I27                             1
    y28       cost                           43
    y28       KF                             13
    y28       I28                             1
    y29       cost                           93
    y29       KF                             85
    y29       I29                             1
    y30       cost                           51
    y30       KF                             43
    y30       I30                             1
    y31       cost                            1
    y31       KF                             90
    y31       I31                             1
    y32       cost                           23
    y32       KF                              4
    y32       I32                             1
    y33       cost                           34
    y33       KF                             16
    y33       I33                             1
    y34       cost                           53
    y34       KF                             64
    y34       I34                             1
    y35       cost                           68
    y35       KF                             47
    y35       I35                             1
    y36       cost                           28
    y36       KF                             45
    y36       I36                             1
    y37       cost                           79
    y37       KF                             57
    y37       I37                             1
    y38       cost                           58
    y38       KF                             87
    y38       I38                             1
    y39       cost                           53
    y39       KF                             68
    y39       I39                             1
    y40       cost                           74
    y40       KF                             82
    y40       I40                             1
    y41       cost                            6
    y41       KF                             49
    y41       I41                             1
    y42       cost                           55
    y42       KF                             44
    y42       I42                             1
    y43       cost                           49
    y43       KF                             14
    y43       I43                             1
    y44       cost                           12
    y44       KF                             40
    y44       I44                             1
    y45       cost                           71
    y45       KF                             42
    y45       I45                             1
    y46       cost                           72
    y46       KF                             63
    y46       I46                             1
    y47       cost                           87
    y47       KF                             51
    y47       I47                             1
    y48       cost                           22
    y48       KF                             97
    y48       I48                             1
    y49       cost                           37
    y49       KF                             73
    y49       I49                             1
    y50       cost                           37
    y50       KF                             28
    y50       I50                             1
    y51       cost                           25
    y51       KF                             46
    y51       I51                             1
    y52       cost                           17
    y52       KF                             14
    y52       I52                             1
    y53       cost                           45
    y53       KF                             62
    y53       I53                             1
    y54       cost                           81
    y54       KF                             13
    y54       I54                             1
    MARK0001  'MARKER'                 'INTEND'
RHS
    rhs       KL                           2398
    rhs       KF                           2405
    rhs       I0                              1
    rhs       I1                              1
    rhs       I2                              1
    rhs       I3                              1
    rhs       I4                              1
    rhs       I5                              1
    rhs       I6                              1
    rhs       I7                              1
    rhs       I8                              1
    rhs       I9                              1
    rhs       I10                             1
    rhs       I11                             1
    rhs       I12                             1
    rhs       I13                             1
    rhs       I14                             1
    rhs       I15                             1
    rhs       I16                             1
    rhs       I17                             1
    rhs       I18                             1
    rhs       I19                             1
    rhs       I20                             1
    rhs       I21                             1
    rhs       I22                             1
    rhs       I23                             1
    rhs       I24                             1
    rhs       I25                             1
    rhs       I26                             1
    rhs       I27                             1
    rhs       I28                             1
    rhs       I29                             1
    rhs       I30                             1
    rhs       I31                             1
    rhs       I32                             1
    rhs       I33                             1
    rhs       I34                             1
    rhs       I35                             1
    rhs       I36                             1
    rhs       I37                             1
    rhs       I38                             1
    rhs       I39                             1
    rhs       I40                             1
    rhs       I41                             1
    rhs       I42                             1
    rhs       I43                             1
    rhs       I44                             1
    rhs       I45                             1
    rhs       I46                             1
    rhs       I47                             1
    rhs       I48                             1
    rhs       I49                             1
    rhs       I50                             1
    rhs       I51                             1
    rhs       I52                             1
    rhs       I53                             1
    rhs       I54                             1
BOUNDS
 BV bnd       x0      
 BV bnd       x1      
 BV bnd       x2      
 BV bnd       x3      
 BV bnd       x4      
 BV bnd       x5      
 BV bnd       x6      
 BV bnd       x7      
 BV bnd       x8      
 BV bnd       x9      
 BV bnd       x10     
 BV bnd       x11     
 BV bnd       x12     
 BV bnd       x13     
 BV bnd       x14     
 BV bnd       x15     
 BV bnd       x16     
 BV bnd       x17     
 BV bnd       x18     
 BV bnd       x19     
 BV bnd       x20     
 BV bnd       x21     
 BV bnd       x22     
 BV bnd       x23     
 BV bnd       x24     
 BV bnd       x25     
 BV bnd       x26     
 BV bnd       x27     
 BV bnd       x28     
 BV bnd       x29     
 BV bnd       x30     
 BV bnd       x31     
 BV bnd       x32     
 BV bnd       x33     
 BV bnd       x34     
 BV bnd       x35     
 BV bnd       x36     
 BV bnd       x37     
 BV bnd       x38     
 BV bnd       x39     
 BV bnd       x40     
 BV bnd       x41     
 BV bnd       x42     
 BV bnd       x43     
 BV bnd       x44     
 BV bnd       x45     
 BV bnd       x46     
 BV bnd       x47     
 BV bnd       x48     
 BV bnd       x49     
 BV bnd       x50     
 BV bnd       x51     
 BV bnd       x52     
 BV bnd       x53     
 BV bnd       x54     
 BV bnd       y0      
 BV bnd       y1      
 BV bnd       y2      
 BV bnd       y3      
 BV bnd       y4      
 BV bnd       y5      
 BV bnd       y6      
 BV bnd       y7      
 BV bnd       y8      
 BV bnd       y9      
 BV bnd       y10     
 BV bnd       y11     
 BV bnd       y12     
 BV bnd       y13     
 BV bnd       y14     
 BV bnd       y15     
 BV bnd       y16     
 BV bnd       y17     
 BV bnd       y18     
 BV bnd       y19     
 BV bnd       y20     
 BV bnd       y21     
 BV bnd       y22     
 BV bnd       y23     
 BV bnd       y24     
 BV bnd       y25     
 BV bnd       y26     
 BV bnd       y27     
 BV bnd       y28     
 BV bnd       y29     
 BV bnd       y30     
 BV bnd       y31     
 BV bnd       y32     
 BV bnd       y33     
 BV bnd       y34     
 BV bnd       y35     
 BV bnd       y36     
 BV bnd       y37     
 BV bnd       y38     
 BV bnd       y39     
 BV bnd       y40     
 BV bnd       y41     
 BV bnd       y42     
 BV bnd       y43     
 BV bnd       y44     
 BV bnd       y45     
 BV bnd       y46     
 BV bnd       y47     
 BV bnd       y48     
 BV bnd       y49     
 BV bnd       y50     
 BV bnd       y51     
 BV bnd       y52     
 BV bnd       y53     
 BV bnd       y54     
ENDATA
